letting n_nurses=25
letting n_days=7
letting n_shift_types=4
letting max_covers=7
letting t_covers=61
letting covers=[1,0,0,0,4,5,2,0,4,5,2,0,7,3,6,0,4,5,2,0,5,4,2,0,0,0,0,0]
letting prefes=[2,2,1,1,1,2,2,2,1,1,1,1,2,2,1,1,2,2,1,1,1,2,2,2,1,1,1,1,2,2,1,3,3,2,1,2,2,2,2,3,2,2,1,3,2,2,1,3,3,2,1,2,2,2,2,3,1,1,1,3,3,2,1,1,2,1,1,3,1,1,1,3,1,1,1,3,3,2,1,1,2,1,1,3,2,2,1,3,3,2,2,2,2,2,1,3,2,2,1,3,2,2,1,3,3,2,2,2,2,2,1,3,2,2,1,3,3,2,2,2,2,2,1,3,2,2,1,3,2,2,1,3,3,2,2,2,2,2,1,3,2,2,3,3,3,2,2,2,2,2,1,3,2,2,3,3,2,2,3,3,3,2,2,2,2,2,1,3,2,2,1,1,1,2,2,2,2,2,1,1,2,2,1,1,2,2,1,1,1,2,2,2,2,2,1,1,2,2,1,1,3,2,2,2,2,2,1,1,2,2,1,1,2,2,1,1,3,2,2,2,2,2,1,1,1,1,1,1,3,2,2,1,2,2,1,1,1,1,1,1,1,1,1,1,3,2,2,1,2,2,1,1,2,2,3,3,3,1,2,2,2,2,2,3,2,2,3,3,2,2,3,3,3,1,2,2,2,2,2,3,2,2,3,3,3,1,2,2,2,2,1,3,2,2,3,3,2,2,3,3,3,1,2,2,2,2,1,3,2,2,1,3,3,2,2,2,2,2,2,3,2,2,1,3,2,2,1,3,3,2,2,2,2,2,2,3,2,2,1,3,3,2,1,2,2,2,1,3,2,2,1,3,2,2,1,3,3,2,1,2,2,2,1,3,2,2,1,3,3,2,1,2,2,1,2,3,2,2,1,3,2,2,1,3,3,2,1,2,2,1,2,3,1,2,1,1,1,2,2,2,2,2,1,1,1,2,1,1,1,2,1,1,1,2,2,2,2,2,1,1,2,2,1,3,3,2,2,2,2,2,1,3,2,2,1,3,2,2,1,3,3,2,2,2,2,2,1,3,2,2,3,3,3,2,2,2,2,2,1,3,2,2,3,3,2,2,3,3,3,2,2,2,2,2,1,3,2,1,1,3,1,2,2,1,2,2,1,3,2,1,1,3,2,1,1,3,1,2,2,1,2,2,1,3,2,2,1,3,3,1,1,2,1,2,1,3,2,2,1,3,2,2,1,3,3,1,1,2,1,2,1,3,1,1,3,3,3,2,2,1,2,2,2,3,1,1,3,3,1,1,3,3,3,2,2,1,2,2,2,3,2,2,1,3,3,1,2,2,2,2,1,3,2,2,1,3,2,2,1,3,3,1,2,2,2,2,1,3,1,2,1,3,3,2,2,2,1,1,1,3,1,2,1,3,1,2,1,3,3,2,2,2,1,1,1,3,2,2,1,3,3,1,2,2,2,2,1,3,2,2,1,3,2,2,1,3,3,1,2,2,2,2,1,3,2,2,1,3,1,2,2,2,1,2,1,3,2,2,1,3,2,2,1,3,1,2,2,2,1,2,1,3,2,1,1,3,3,2,2,1,1,1,1,3,2,1,1,3,2,1,1,3,3,2,2,1,1,1,1,3]
letting ub =  238
